p cnf 999 614
164 0
182 0
218 0
267 0
334 0
353 0
371 0
427 0
528 0
547 0
589 0
614 0
623 0
665 0
672 0
759 0
813 0
824 0
848 0
851 0
926 0
944 0
963 0
988 0
991 0
-161 0
-162 0
-163 0
-165 0
-166 0
-167 0
-168 0
-169 0
-181 0
-183 0
-184 0
-185 0
-186 0
-187 0
-188 0
-189 0
-211 0
-212 0
-213 0
-214 0
-215 0
-216 0
-217 0
-219 0
-261 0
-262 0
-263 0
-264 0
-265 0
-266 0
-268 0
-269 0
-331 0
-332 0
-333 0
-335 0
-336 0
-337 0
-338 0
-339 0
-351 0
-352 0
-354 0
-355 0
-356 0
-357 0
-358 0
-359 0
-372 0
-373 0
-374 0
-375 0
-376 0
-377 0
-378 0
-379 0
-421 0
-422 0
-423 0
-424 0
-425 0
-426 0
-428 0
-429 0
-521 0
-522 0
-523 0
-524 0
-525 0
-526 0
-527 0
-529 0
-541 0
-542 0
-543 0
-544 0
-545 0
-546 0
-548 0
-549 0
-581 0
-582 0
-583 0
-584 0
-585 0
-586 0
-587 0
-588 0
-611 0
-612 0
-613 0
-615 0
-616 0
-617 0
-618 0
-619 0
-621 0
-622 0
-624 0
-625 0
-626 0
-627 0
-628 0
-629 0
-661 0
-662 0
-663 0
-664 0
-666 0
-667 0
-668 0
-669 0
-671 0
-673 0
-674 0
-675 0
-676 0
-677 0
-678 0
-679 0
-751 0
-752 0
-753 0
-754 0
-755 0
-756 0
-757 0
-758 0
-811 0
-812 0
-814 0
-815 0
-816 0
-817 0
-818 0
-819 0
-821 0
-822 0
-823 0
-825 0
-826 0
-827 0
-828 0
-829 0
-841 0
-842 0
-843 0
-844 0
-845 0
-846 0
-847 0
-849 0
-852 0
-853 0
-854 0
-855 0
-856 0
-857 0
-858 0
-859 0
-921 0
-922 0
-923 0
-924 0
-925 0
-927 0
-928 0
-929 0
-941 0
-942 0
-943 0
-945 0
-946 0
-947 0
-948 0
-949 0
-961 0
-962 0
-964 0
-965 0
-966 0
-967 0
-968 0
-969 0
-981 0
-982 0
-983 0
-984 0
-985 0
-986 0
-987 0
-989 0
-992 0
-993 0
-994 0
-995 0
-996 0
-997 0
-998 0
-999 0
-114 0
-124 0
-134 0
-224 0
-234 0
-314 0
-324 0
-118 0
-128 0
-138 0
-228 0
-238 0
-318 0
-328 0
-143 0
-153 0
-243 0
-253 0
-343 0
-363 0
-144 0
-154 0
-244 0
-254 0
-344 0
-364 0
-147 0
-157 0
-247 0
-257 0
-347 0
-367 0
-171 0
-191 0
-271 0
-281 0
-291 0
-381 0
-391 0
-172 0
-192 0
-272 0
-282 0
-292 0
-382 0
-392 0
-413 0
-433 0
-513 0
-533 0
-633 0
-414 0
-434 0
-514 0
-534 0
-634 0
-417 0
-437 0
-517 0
-537 0
-637 0
-418 0
-438 0
-518 0
-538 0
-638 0
-445 0
-455 0
-465 0
-555 0
-565 0
-645 0
-655 0
-447 0
-457 0
-467 0
-557 0
-567 0
-647 0
-657 0
-472 0
-482 0
-492 0
-572 0
-592 0
-682 0
-692 0
-479 0
-489 0
-499 0
-579 0
-599 0
-689 0
-699 0
-713 0
-723 0
-733 0
-833 0
-913 0
-933 0
-714 0
-724 0
-734 0
-834 0
-914 0
-934 0
-716 0
-726 0
-736 0
-836 0
-916 0
-936 0
-741 0
-761 0
-861 0
-951 0
-743 0
-763 0
-863 0
-953 0
-744 0
-764 0
-864 0
-954 0
-748 0
-768 0
-868 0
-958 0
-749 0
-769 0
-869 0
-959 0
-771 0
-781 0
-791 0
-871 0
-881 0
-891 0
-971 0
-778 0
-788 0
-798 0
-878 0
-888 0
-898 0
-978 0
-112 0
-122 0
-132 0
-142 0
-152 0
-174 0
-194 0
-227 0
-237 0
-277 0
-287 0
-297 0
-248 0
-258 0
-278 0
-288 0
-298 0
-311 0
-321 0
-341 0
-361 0
-313 0
-323 0
-383 0
-393 0
-384 0
-394 0
-477 0
-487 0
-497 0
-577 0
-597 0
-558 0
-568 0
-578 0
-598 0
-519 0
-539 0
-559 0
-569 0
-632 0
-642 0
-652 0
-643 0
-653 0
-683 0
-693 0
-644 0
-654 0
-684 0
-694 0
-635 0
-685 0
-695 0
-719 0
-729 0
-739 0
-779 0
-789 0
-799 0
-831 0
-873 0
-883 0
-893 0
-874 0
-884 0
-894 0
-838 0
-911 0
-931 0
-973 0
-974 0
-956 0
-976 0
-918 0
-938 0
-113 0
-718 0
-123 0
-223 0
-126 0
-226 0
-326 0
-127 0
-327 0
-727 0
-728 0
-444 0
-747 0
-148 0
-348 0
-448 0
-648 0
-151 0
-251 0
-451 0
-551 0
-651 0
-453 0
-553 0
-159 0
-259 0
-459 0
-659 0
-463 0
-563 0
-464 0
-564 0
-365 0
-765 0
-865 0
-767 0
-867 0
-471 0
-571 0
-772 0
-872 0
-972 0
-782 0
-882 0
-388 0
-488 0
-688 0
-289 0
-389 0
-889 0
-491 0
-591 0
-691 0
443 0
738 0
957 0
-441 0
-442 0
-446 0
-449 0
-731 0
-732 0
-735 0
-737 0
-952 0
-955 0
-473 0
-483 0
-493 0
-917 0
-937 0
-977 0
745 0
-742 0
-746 0
-715 0
-725 0
-775 0
-785 0
-795 0
-145 0
-245 0
-345 0
784 0
-783 0
-786 0
-787 0
-774 0
-794 0
-284 0
-484 0
283 0
-285 0
-286 0
-173 0
-193 0
-273 0
-293 0
-233 0
133 0
-131 0
-135 0
-136 0
-137 0
-139 0
837 0
-832 0
-835 0
-839 0
-717 0
-877 0
-887 0
-897 0
197 0
-195 0
-196 0
-198 0
-199 0
-177 0
-387 0
-397 0
-117 0
-697 0
-797 0
317 0
687 0
777 0
-312 0
-315 0
-316 0
-319 0
-681 0
-686 0
-773 0
-776 0
481 0
793 0
573 0
-485 0
-486 0
-574 0
-575 0
-576 0
-792 0
-796 0
-593 0
-411 0
-431 0
-461 0
892 0
766 0
561 0
-562 0
-566 0
-762 0
-895 0
-896 0
-899 0
-641 0
-866 0
-511 0
-531 0
-862 0
-366 0
-466 0
631 0
879 0